# 変更するパラメータ類
variable x_vec 		  equal 1
variable y_vec 		  equal 3
variable z_vec 		  equal 5
variable temp     	  equal 100               		   # Temperature
variable pka 		  equal 1
variable id_pka	  	  equal 16841
variable lattice      equal 3.630+4.5342*1e-5*${temp}  # Lattice Constant

variable abs_vec	  equal sqrt(${x_vec}^2+${y_vec}^2+${z_vec}^2)
variable electron 	  equal 1.6022e-19
variable avogadro	  equal 6.02214e+23
variable cna_cut      equal 0.8536*${lattice}                   # CNA Cutoff
variable maxdisp	  equal ${lattice}/100
variable pka_j 		  equal 1000*${pka}*${electron}
variable mass         equal 63.5460                    # Atomic Mass
variable mass_kg 	  equal (${mass}/${avogadro})/1000
variable velo_m_per_s equal sqrt(2*${pka_j}/${mass_kg})
variable velo 		  equal ${velo_m_per_s}/100
variable velocity_x   equal ${velo}*${x_vec}/${abs_vec}
variable velocity_y   equal ${velo}*${y_vec}/${abs_vec}
variable velocity_z   equal ${velo}*${z_vec}/${abs_vec}
variable current_time equal time


units       metal
atom_style  atomic
boundary p p p

read_data   ./Cu.lat
pair_style  eam/fs
pair_coeff  * * /home/hayakawa/potentials/sfe44.1.eam.fs Cu

mass        1 ${mass}

fix 1 all nve

compute 1 all cna/atom ${cna_cut}

## dumpは外部ファイルへの出力情報を設定
## dump 0 all cfg 100 all.*.cfg mass type xs ys zs id
## dump_modify 0 element Cu

# Dump CNA Analysis Result
dump 1 all cfg 100 cna.*.cfg mass type xs ys zs id c_1
dump_modify 1 thresh c_1 != 1
dump_modify 1 element Cu


## thermoはLAMMMPSのLOGファイルへの出力を設定
thermo 100
thermo_style custom step temp press etotal time vol
# thermo_modify lost warn flush yes <-調べてみよう！

# STABILIZE INITIAL STATE
velocity all create ${temp} ${rand} dist gaussian
print ${rand}

# Stabilize
fix 2 all temp/rescale 1 ${temp} ${temp} 0.5 1.0
run 1000
unfix 2

write_restart restart.*


# main part of cascade
# set velocity to PKA
group PKA id ${id_pka}
set group PKA type 1
velocity PKA set ${velocity_x} ${velocity_y} ${velocity_z} sum no

# variable timestep
timestep 0.001
fix resetts all dt/reset 100 NULL NULL ${maxdisp} units box
label run_fixts
run 10000
if "${current_time}<1.0" then "jump cascade.lammps run_fixts"
unfix resetts

write_restart restart.*


timestep    0.001
label run_fixts
run 10000
write_restart restart.*
if "${current_time}<1.0" then "jump cascade.lammps run_fixts"

minimize 1e-8 1e-8 10000 10000
